5 5
4 1 2 8 5 3 14 5 14 2 16 1 11 4 18 4 1 9 4 5 3 13 5 12 3 3 12 5 17 4 3
5 3 5 10 2 2 4 19 1 1 7 3 2 15 3 7 5 2 4 5 20 4 12 3 7 1 13 4 5 19 4 7 3 20 1 11
4 2 1 14 2 14 3 3 13 4 2 2 2 1 2 10 4 5 9 1 11 3 17 2 12
5 5 3 13 5 9 4 9 2 15 1 9 3 2 2 4 20 5 14 1 2 14 4 4 19 2 3 1 12 3 14 5 3 17 1 14 2 13 4 18 5 5
8 1 4 19 4 3 3 2 9 5 8 1 8 4 3 8 5 12 1 7 2 6 4 2 5 1 19 4 7 5 10 1 2 17 4 5 2 2 17 3 7 1 14 4 3 16 5 5 2 4 4 20 5 3 9 1 19 2 11 4 19 5 6